C                                       
1.0
       20.6665058136         0.0000000000         0.0000000000
       10.3246228797        17.8548927014         0.0000000000
        0.0000000000         0.0000000000        25.7771492004
    C    B    N
  106    1    1
Direct
     0.304634184         0.029534005         0.500000000
     0.637932003         0.027813781         0.500000000
     0.971220374         0.029537432         0.500000000
     0.305635512         0.362381279         0.500000000
     0.640168667         0.364949733         0.500000000
     0.971554041         0.363010615         0.500000000
     0.303516060         0.697299778         0.500000000
     0.638210118         0.695858657         0.500000000
     0.971829116         0.695793986         0.500000000
     0.167654514         0.029641161         0.500000000
     0.501205981         0.028440202         0.500000000
     0.834726155         0.029182943         0.500000000
     0.168619528         0.362801760         0.500000000
     0.495628804         0.361928523         0.500000000
     0.834766388         0.362729371         0.500000000
     0.167528778         0.696547747         0.500000000
     0.500392318         0.696734071         0.500000000
     0.834745884         0.696054220         0.500000000
     0.030631188         0.303766400         0.500000000
     0.364188939         0.302430302         0.500000000
     0.698009670         0.304108441         0.500000000
     0.031457379         0.636997700         0.500000000
     0.362821102         0.638262272         0.500000000
     0.697829485         0.637059629         0.500000000
     0.030622520         0.970513344         0.500000000
     0.363917947         0.970397055         0.500000000
     0.697880745         0.969573915         0.500000000
     0.167646214         0.304033399         0.500000000
     0.499713093         0.300855845         0.500000000
     0.834495723         0.303623587         0.500000000
     0.167930439         0.637128949         0.500000000
     0.498181641         0.638789952         0.500000000
     0.834716558         0.636910200         0.500000000
     0.167348847         0.970621169         0.500000000
     0.500969589         0.969518900         0.500000000
     0.834508836         0.970079064         0.500000000
     0.167618498         0.097745374         0.500000000
     0.501127303         0.096436195         0.500000000
     0.834337711         0.097571701         0.500000000
     0.168790177         0.431000501         0.500000000
     0.834682822         0.431007236         0.500000000
     0.167228281         0.764726043         0.500000000
     0.501056075         0.764418602         0.500000000
     0.834646523         0.764105737         0.500000000
     0.098693594         0.166688070         0.500000000
     0.431950599         0.164903477         0.500000000
     0.765227675         0.166490853         0.500000000
     0.099611513         0.499808758         0.500000000
     0.765906096         0.500078619         0.500000000
     0.098406896         0.833633304         0.500000000
     0.431979179         0.833192945         0.500000000
     0.765658975         0.832929194         0.500000000
     0.098709911         0.235681280         0.500000000
     0.431798458         0.233709678         0.500000000
     0.765408576         0.235531658         0.500000000
     0.099623136         0.568746686         0.500000000
     0.430562407         0.571145773         0.500000000
     0.765937805         0.568961322         0.500000000
     0.098607264         0.902453005         0.500000000
     0.431952864         0.902031243         0.500000000
     0.765941381         0.901696384         0.500000000
     0.030620618         0.166643068         0.500000000
     0.364059329         0.164906457         0.500000000
     0.697176337         0.166114196         0.500000000
     0.031317458         0.499797344         0.500000000
     0.362676919         0.505759895         0.500000000
     0.697371542         0.501089573         0.500000000
     0.030386616         0.833621025         0.500000000
     0.363955438         0.832989216         0.500000000
     0.697426379         0.833064675         0.500000000
     0.304303229         0.166380212         0.500000000
     0.638367414         0.165311635         0.500000000
     0.971579850         0.166479632         0.500000000
     0.305712283         0.501760066         0.500000000
     0.636710823         0.504399002         0.500000000
     0.972087204         0.499946564         0.500000000
     0.304643035         0.833385229         0.500000000
     0.638178170         0.833237886         0.500000000
     0.971545458         0.833123624         0.500000000
     0.167454422         0.235866636         0.500000000
     0.501061440         0.232645422         0.500000000
     0.834524214         0.235366076         0.500000000
     0.168637246         0.568707526         0.500000000
     0.499179333         0.570198178         0.500000000
     0.834898710         0.568825424         0.500000000
     0.167527512         0.902476668         0.500000000
     0.501045942         0.901545048         0.500000000
     0.834626555         0.901875377         0.500000000
     0.236213133         0.166743845         0.500000000
     0.570515513         0.164567947         0.500000000
     0.903407454         0.166552365         0.500000000
     0.238052666         0.500093281         0.500000000
     0.569923520         0.501842916         0.500000000
     0.903778434         0.499990821         0.500000000
     0.236362949         0.833754003         0.500000000
     0.570151269         0.832938552         0.500000000
     0.903562605         0.832961500         0.500000000
     0.236443013         0.097719811         0.500000000
     0.570136130         0.095921770         0.500000000
     0.903199196         0.097596698         0.500000000
     0.237914756         0.431040406         0.500000000
     0.572202325         0.432564557         0.500000000
     0.903534174         0.431120396         0.500000000
     0.235872999         0.765070975         0.500000000
     0.570112586         0.763964117         0.500000000
     0.903620601         0.763966739         0.500000000
     0.498834968         0.432247430         0.500000000
     0.429013848         0.504232883         0.500000000
